p tw 45 93
5 43
5 6
5 12
10 18
10 17
10 14
10 20
14 15
1 13
1 2
1 15
6 42
6 20
6 18
6 16
9 41
9 18
9 15
2 43
2 6
2 4
8 12
8 18
8 15
4 45
4 15
4 12
15 20
15 19
42 45
42 44
24 38
24 31
25 34
25 36
20 41
29 32
29 31
29 40
21 41
21 33
21 31
21 26
21 39
21 28
21 35
21 38
28 29
38 42
13 42
13 18
13 16
41 44
41 43
17 45
17 19
34 41
34 40
22 34
22 23
22 37
22 36
44 45
27 44
27 32
27 40
7 13
39 43
39 40
3 6
3 44
3 5
3 7
35 40
16 17
31 33
11 14
43 45
43 44
40 42
26 45
26 28
26 36
26 39
26 32
26 38
26 43
23 29
23 32
30 34
30 45
30 32
30 40
